14
0 42 91 45 79 68 33 70 32 8 91 51 67 36 
42 0 92 58 53 42 59 60 77 7 83 66 77 9 
91 92 0 36 56 53 40 14 5 33 20 19 36 48 
45 58 36 0 62 44 80 98 87 39 90 35 87 25 
79 53 56 62 0 43 58 71 57 11 85 64 61 98 
68 42 53 44 43 0 40 58 7 30 11 20 17 96 
33 59 40 80 58 40 0 63 6 38 91 14 94 66 
70 60 14 98 71 58 63 0 42 94 0 98 98 46 
32 77 5 87 57 7 6 42 0 73 14 13 94 38 
8 7 33 39 11 30 38 94 73 0 26 60 77 89 
91 83 20 90 85 11 91 0 14 26 0 2 73 15 
51 66 19 35 64 20 14 98 13 60 2 0 33 50 
67 77 36 87 61 17 94 98 94 77 73 33 0 90 
36 9 48 25 98 96 66 46 38 89 15 50 90 0 
BBBRBRRRRBRBBR
